; benchmark generated from python API
(set-info :status unknown)
(declare-datatypes ((RealState 0)) (((RMk1 (rval1 Real)) (RMk2 (rval2 Real)))))
 (assert
 (forall ((|v17:0| Real) )(forall ((|v16:1| Real) )(forall ((|v15:2| Real) )(forall ((|v14:3| Real) )(forall ((|v13:4| Real) )(forall ((|v12:5| Real) )(exists ((|v11:6_st| RealState) (val!9630 Real) )(exists ((|v10:7_st| RealState) (val!9631 Real) )(exists ((|v9:8_st| RealState) (val!9632 Real) )(exists ((|v8:9_st| RealState) (val!9633 Real) )(exists ((|v7:10_st| RealState) (val!9634 Real) )(exists ((|v6:11_st| RealState) (val!9635 Real) )(forall ((|v5:12| Real) )(forall ((|v4:13| Real) )(forall ((|v3:14| Real) )(forall ((|v2:15| Real) )(forall ((|v1:16| Real) )(forall ((|v0:17| Real) )(let ((?x4991 (* 3.0 |v14:3|)))
 (let ((?x5377 (- 9.0)))
 (let ((?x8076 (* ?x5377 |v3:14|)))
 (let ((?x2430 (+ (+ (+ (* (- 20.0) |v16:1|) (* 18.0 |v4:13|)) (* 13.0 |v1:16|)) ?x8076)))
 (let ((?x8687 (- 12.0)))
 (let ((?x5905 (* 18.0 |v4:13|)))
 (let ((?x1075 (- 17.0)))
 (let ((?x6487 (* ?x1075 |v15:2|)))
 (let ((?x7870 (* 11.0 |v3:14|)))
 (let ((?x2008 (+ (+ (+ ?x5905 (* 18.0 (rval2 |v6:11_st|))) (* 6.0 (rval2 |v6:11_st|))) ?x7870)))
 (let (($x923 (or (<= (+ (+ (+ ?x2008 ?x6487) |v5:12|) ?x5905) ?x8687) (<= (+ (+ (+ ?x2430 (* (- 6.0) |v17:0|)) ?x8076) ?x4991) 4.0))))
 (let ((?x772 (- 6.0)))
 (let ((?x7386 (* 2.0 |v4:13|)))
 (let ((?x261 (rval2 |v10:7_st|)))
 (let ((?x6541 (* 13.0 ?x261)))
 (let ((?x6192 (+ (+ (+ (* (- 1.0) |v15:2|) (* ?x1075 |v1:16|)) (* (- 11.0) |v16:1|)) ?x6541)))
 (let ((?x2183 (+ (+ (+ ?x6192 (* (- 19.0) |v14:3|)) (* (- 5.0) (rval2 |v11:6_st|))) ?x7386)))
 (let ((?x5229 (- 1.0)))
 (let ((?x9047 (rval2 |v9:8_st|)))
 (let ((?x4774 (* 8.0 ?x9047)))
 (let ((?x3031 (* 18.0 |v5:12|)))
 (let ((?x8970 (+ (+ (+ (* ?x5229 |v0:17|) (* (- 13.0) |v17:0|)) (* 6.0 (rval2 |v6:11_st|))) (* 18.0 (rval2 |v11:6_st|)))))
 (let (($x4006 (or (<= (+ (+ (+ ?x8970 (* 11.0 |v17:0|)) ?x3031) ?x4774) ?x5229) (<= ?x2183 ?x772))))
 (let ((?x1786 (- 10.0)))
 (let ((?x9344 (* ?x1786 |v3:14|)))
 (let ((?x5246 (* 14.0 |v16:1|)))
 (let ((?x7358 (- 15.0)))
 (let ((?x8224 (* ?x7358 |v2:15|)))
 (let ((?x282 (+ (+ (+ (* 11.0 (rval2 |v8:9_st|)) (* 15.0 ?x9047)) (* 5.0 |v15:2|)) ?x8224)))
 (let ((?x2464 (- 4.0)))
 (let ((?x7153 (rval2 |v8:9_st|)))
 (let ((?x2544 (- 18.0)))
 (let ((?x8174 (* ?x2544 ?x7153)))
 (let ((?x7355 (* 15.0 |v17:0|)))
 (let ((?x6619 (- 14.0)))
 (let ((?x1560 (* ?x6619 |v1:16|)))
 (let ((?x7596 (+ (+ (+ (* (- 13.0) ?x261) (* 18.0 |v15:2|)) (* 8.0 (rval2 |v6:11_st|))) (* 2.0 (rval2 |v6:11_st|)))))
 (let (($x470 (or (<= (+ (+ (+ ?x7596 ?x1560) ?x7355) ?x8174) ?x2464) (<= (+ (+ (+ ?x282 (* ?x5229 (rval2 |v6:11_st|))) ?x5246) ?x9344) 3.0))))
 (let ((?x4677 (- 16.0)))
 (let ((?x1949 (* 9.0 |v13:4|)))
 (let ((?x4843 (+ (+ (+ (* (- 11.0) |v1:16|) (* 15.0 |v15:2|)) (* ?x1786 (rval2 |v11:6_st|))) ?x1949)))
 (let ((?x1637 (* ?x772 |v1:16|)))
 (let ((?x4208 (* ?x5229 |v12:5|)))
 (let ((?x5744 (- 5.0)))
 (let ((?x2127 (* ?x5744 |v3:14|)))
 (let ((?x8276 (+ (+ (+ (* ?x5744 |v14:3|) ?x7153) (* 19.0 |v16:1|)) (* (- 2.0) (rval2 |v7:10_st|)))))
 (let (($x2502 (and (<= (+ (+ (+ ?x8276 ?x2127) ?x4208) ?x1637) 18.0) (<= (+ (+ (+ ?x4843 ?x6487) (* ?x2464 |v17:0|)) |v4:13|) ?x4677))))
 (let ((?x7842 (* 10.0 ?x261)))
 (let ((?x755 (* 7.0 |v4:13|)))
 (let ((?x5075 (+ (+ (+ (+ ?x7153 (* ?x5229 (rval2 |v7:10_st|))) (* ?x2464 |v12:5|)) ?x755) (* (- 8.0) (rval2 |v6:11_st|)))))
 (let ((?x8798 (- 8.0)))
 (let ((?x8596 (* ?x1786 ?x9047)))
 (let ((?x8531 (- 7.0)))
 (let ((?x5095 (* ?x8531 |v12:5|)))
 (let ((?x6673 (+ (+ (+ (* (- 3.0) ?x7153) (* 5.0 ?x261)) (* 4.0 |v4:13|)) (* (- 20.0) |v15:2|))))
 (let (($x2932 (or (<= (+ (+ (+ ?x6673 ?x5095) ?x8596) (* ?x2544 |v16:1|)) ?x8798) (<= (+ (+ ?x5075 (* 5.0 (rval2 |v6:11_st|))) ?x7842) 8.0))))
 (let ((?x7266 (- 3.0)))
 (let ((?x1697 (- 2.0)))
 (let ((?x2031 (* ?x1697 |v5:12|)))
 (let ((?x8403 (* ?x1075 |v4:13|)))
 (let ((?x666 (+ (+ (+ (* (- 11.0) |v13:4|) (* 8.0 (rval2 |v6:11_st|))) (* ?x1786 |v0:17|)) ?x8403)))
 (let (($x5115 (<= (+ (+ (+ ?x666 ?x2031) (* 6.0 |v16:1|)) (* (- 19.0) |v16:1|)) ?x7266)))
 (let ((?x6937 (* ?x1697 ?x7153)))
 (let ((?x3435 (* 7.0 ?x261)))
 (let ((?x2738 (* ?x2464 |v12:5|)))
 (let ((?x701 (* 8.0 |v13:4|)))
 (let ((?x4856 (+ (+ (+ (* ?x5744 (rval2 |v6:11_st|)) (* 3.0 |v0:17|)) (* ?x8798 (rval2 |v11:6_st|))) ?x701)))
 (let ((?x526 (* 16.0 |v0:17|)))
 (let ((?x4851 (* ?x5229 |v1:16|)))
 (let ((?x4493 (+ (+ (+ (* 5.0 (rval2 |v11:6_st|)) (* ?x4677 ?x7153)) (* ?x1075 |v0:17|)) (* ?x2544 |v15:2|))))
 (let ((?x1691 (* ?x1075 |v5:12|)))
 (let ((?x6209 (* 2.0 |v15:2|)))
 (let ((?x2641 (+ (+ (+ (* ?x1697 |v2:15|) (* ?x7266 (rval2 |v7:10_st|))) (* 15.0 |v4:13|)) (* 20.0 (rval2 |v7:10_st|)))))
 (let (($x9335 (and (<= (+ (+ (+ ?x2641 ?x6209) (* (- 19.0) |v15:2|)) ?x1691) 4.0) (<= (+ (+ (+ ?x4493 (* 20.0 |v17:0|)) ?x4851) ?x526) ?x6619))))
 (let ((?x4255 (* 20.0 |v3:14|)))
 (let ((?x5406 (* 7.0 |v14:3|)))
 (let ((?x393 (+ (+ (* 17.0 |v2:15|) (* 20.0 |v2:15|)) (* 11.0 |v2:15|))))
 (let (($x667 (<= (+ (+ (+ (+ ?x393 (* ?x1075 |v17:0|)) ?x5406) (* ?x8531 ?x261)) ?x4255) 12.0)))
 (let ((?x7034 (* 2.0 |v5:12|)))
 (let ((?x9010 (- 19.0)))
 (let ((?x868 (* ?x9010 |v4:13|)))
 (let ((?x6032 (+ (+ (+ (+ (* ?x772 ?x7153) (* 6.0 |v4:13|)) (* 12.0 |v4:13|)) ?x868) (* ?x2544 (rval2 |v7:10_st|)))))
 (let (($x381 (or (and (or (<= (+ (+ ?x6032 ?x7034) ?x6937) ?x7358) $x667) $x9335) (and (or (<= (+ (+ (+ ?x4856 ?x2738) ?x3435) ?x6937) ?x1697) $x5115) $x2932))))
 (let ((?x7216 (* 16.0 |v5:12|)))
 (let ((?x3841 (* ?x1697 |v1:16|)))
 (let ((?x7239 (* 18.0 ?x261)))
 (let ((?x6534 (+ (+ (+ (* ?x5377 |v17:0|) (* 2.0 (rval2 |v11:6_st|))) (* ?x772 |v14:3|)) ?x7239)))
 (let ((?x4296 (* ?x7266 |v15:2|)))
 (let ((?x6301 (* 15.0 |v3:14|)))
 (let ((?x6324 (rval2 |v7:10_st|)))
 (let ((?x4742 (* 10.0 ?x6324)))
 (let ((?x2393 (+ (+ (+ (+ ?x9047 (* 12.0 |v0:17|)) (* 8.0 |v12:5|)) ?x4742) (* 0.0 ?x6324))))
 (let (($x1966 (or (<= (+ (+ ?x2393 ?x6301) ?x4296) 1.0) (<= (+ (+ (+ ?x6534 ?x3841) (* (- 20.0) ?x6324)) ?x7216) 20.0))))
 (let ((?x9229 (* ?x2464 |v4:13|)))
 (let ((?x9104 (+ (+ (+ (+ (* 16.0 ?x6324) ?x9047) (* 5.0 |v5:12|)) (* 13.0 ?x9047)) ?x9229)))
 (let ((?x9441 (* 15.0 |v14:3|)))
 (let ((?x4651 (rval2 |v6:11_st|)))
 (let ((?x7128 (* 4.0 ?x4651)))
 (let ((?x1494 (+ (+ (+ (+ (* ?x772 |v12:5|) ?x2031) (* ?x5229 ?x7153)) (* ?x8687 ?x7153)) ?x7128)))
 (let ((?x1720 (- 20.0)))
 (let ((?x4386 (* ?x1697 |v2:15|)))
 (let ((?x8761 (+ (+ (+ (+ (* ?x5229 |v4:13|) (* 6.0 ?x4651)) (* ?x7266 |v17:0|)) ?x4386) (* ?x5744 |v15:2|))))
 (let (($x2120 (and (<= (+ (+ ?x8761 (* ?x7358 |v16:1|)) (* ?x1720 |v17:0|)) ?x1720) (<= (+ (+ ?x1494 ?x9441) (* 13.0 |v14:3|)) ?x2464))))
 (let ((?x4885 (* ?x5229 |v17:0|)))
 (let ((?x6040 (* 14.0 ?x7153)))
 (let ((?x7347 (- 13.0)))
 (let ((?x8127 (* ?x7347 |v12:5|)))
 (let ((?x2883 (+ (+ (+ (+ (* ?x2464 |v1:16|) (* ?x7266 (rval2 |v11:6_st|))) (* ?x5744 |v14:3|)) ?x8127) ?x6040)))
 (let ((?x8118 (* ?x5229 |v2:15|)))
 (let ((?x3641 (* ?x7347 |v4:13|)))
 (let ((?x4970 (+ (+ (+ (+ (* ?x1786 |v5:12|) (* 13.0 |v15:2|)) (* ?x7358 ?x261)) ?x3641) ?x8118)))
 (let (($x7125 (or (<= (+ (+ ?x4970 (* 10.0 ?x4651)) (* 4.0 |v17:0|)) ?x1697) (<= (+ (+ ?x2883 ?x4885) ?x1560) ?x4677))))
 (let (($x7412 (and (or $x7125 $x2120) (and (<= (+ (+ ?x9104 (* ?x8798 |v13:4|)) (* 19.0 ?x9047)) 12.0) $x1966))))
 (let ((?x753 (* ?x5229 ?x7153)))
 (let ((?x1407 (* 15.0 |v0:17|)))
 (let ((?x4141 (+ (+ (+ (+ (* 18.0 |v13:4|) (* 12.0 |v0:17|)) ?x7128) (* ?x8687 |v0:17|)) (* ?x1786 |v13:4|))))
 (let ((?x2320 (* 5.0 ?x7153)))
 (let ((?x4838 (+ (+ (+ (+ (* 17.0 |v4:13|) (* 8.0 ?x6324)) ?x868) (* 16.0 ?x6324)) ?x6324)))
 (let (($x3744 (and (<= (+ (+ ?x4838 ?x2320) (* ?x5377 (rval2 |v11:6_st|))) 20.0) (<= (+ (+ ?x4141 ?x1407) ?x753) ?x1786))))
 (let ((?x7439 (* ?x5377 |v0:17|)))
 (let ((?x1968 (+ (+ (+ (* ?x4677 |v4:13|) (* 3.0 |v15:2|)) (* 9.0 ?x9047)) (* ?x7358 |v17:0|))))
 (let ((?x1862 (* ?x7347 ?x7153)))
 (let ((?x5386 (* 15.0 |v2:15|)))
 (let ((?x7029 (+ (+ (+ (+ (+ ?x4651 ?x6324) (* ?x1720 ?x7153)) ?x4851) (* 19.0 |v12:5|)) ?x5386)))
 (let (($x3699 (or (<= (+ ?x7029 ?x1862) ?x5229) (<= (+ (+ (+ ?x1968 ?x8174) (* 0.0 ?x7153)) ?x7439) 18.0))))
 (let ((?x853 (* 13.0 |v5:12|)))
 (let ((?x7514 (+ (+ (+ (* ?x8531 |v14:3|) (* 11.0 ?x4651)) (* 15.0 |v5:12|)) (* 0.0 |v12:5|))))
 (let ((?x7119 (* ?x8798 |v16:1|)))
 (let ((?x2926 (* ?x1786 |v0:17|)))
 (let ((?x5172 (+ (+ (+ ?x2320 (* ?x7358 |v1:16|)) (* 7.0 |v16:1|)) (* 11.0 (rval2 |v11:6_st|)))))
 (let (($x3068 (or (<= (+ (+ (+ ?x5172 ?x2926) ?x7119) (* ?x4677 ?x9047)) 18.0) (<= (+ (+ (+ ?x7514 (* ?x7358 |v14:3|)) ?x853) ?x1862) 7.0))))
 (let ((?x2572 (+ (+ (+ (* 6.0 |v2:15|) (* ?x5229 |v16:1|)) (* ?x5744 |v1:16|)) (* ?x5744 ?x261))))
 (let (($x3306 (<= (+ (+ (+ ?x2572 (* ?x2544 |v17:0|)) (* 11.0 ?x261)) (* ?x1075 |v13:4|)) 11.0)))
 (let (($x1164 (or (or (or (and $x3306 $x3068) (or $x3699 $x3744)) $x7412) (or $x381 (or (or $x2502 $x470) (and $x4006 $x923))))))
 (let ((?x6965 (* ?x7358 ?x4651)))
 (let ((?x3335 (* ?x1075 |v2:15|)))
 (let ((?x2643 (+ (+ (+ (+ ?x5095 (* 17.0 ?x261)) (* ?x7266 |v5:12|)) (* ?x8798 |v4:13|)) ?x3335)))
 (let ((?x4766 (* 3.0 ?x7153)))
 (let ((?x5231 (+ (+ (+ ?x7870 (* ?x7266 |v0:17|)) (* ?x772 |v3:14|)) ?x5905)))
 (let (($x1505 (or (<= (+ (+ (+ ?x5231 (* 0.0 (rval2 |v11:6_st|))) ?x6965) ?x4766) ?x1697) (<= (+ (+ ?x2643 ?x6965) ?x8174) 2.0))))
 (let ((?x8078 (* ?x8798 ?x6324)))
 (let ((?x7968 (* ?x5744 |v5:12|)))
 (let ((?x5522 (rval2 |v11:6_st|)))
 (let ((?x6426 (* 7.0 ?x5522)))
 (let ((?x6771 (+ (+ (+ (+ (* 9.0 |v15:2|) (* ?x1720 ?x7153)) (* 16.0 ?x261)) ?x1560) ?x6426)))
 (let ((?x5066 (* 20.0 ?x261)))
 (let ((?x6786 (* 20.0 |v16:1|)))
 (let ((?x4097 (* ?x2464 |v3:14|)))
 (let ((?x8299 (+ (+ (+ (+ (* ?x5229 |v4:13|) (* 10.0 |v5:12|)) (* 13.0 |v17:0|)) ?x8127) ?x4097)))
 (let (($x108 (or (<= (+ (+ ?x8299 ?x6786) ?x5066) 19.0) (<= (+ (+ ?x6771 ?x7968) ?x8078) 7.0))))
 (let ((?x3122 (* ?x2544 ?x261)))
 (let ((?x6670 (* ?x7266 |v0:17|)))
 (let ((?x1311 (+ (+ (* ?x772 |v4:13|) (* 11.0 |v1:16|)) ?x6670)))
 (let (($x9303 (<= (+ (+ (+ (+ ?x1311 (* ?x8531 ?x6324)) ?x3122) ?x6209) (* 9.0 ?x7153)) 1.0)))
 (let ((?x8806 (* ?x4677 |v2:15|)))
 (let ((?x2322 (* ?x7358 |v5:12|)))
 (let ((?x7658 (* ?x5229 |v16:1|)))
 (let ((?x8874 (+ (+ (+ (+ (* ?x5229 ?x6324) (* ?x2464 |v2:15|)) (* 0.0 |v4:13|)) ?x8596) ?x7658)))
 (let ((?x2395 (* ?x2464 |v2:15|)))
 (let ((?x409 (* 5.0 ?x6324)))
 (let ((?x4810 (+ (+ (+ (+ (* ?x8687 |v17:0|) (* ?x1075 ?x5522)) (* ?x8687 ?x5522)) ?x409) ?x2395)))
 (let ((?x8733 (* 10.0 |v13:4|)))
 (let ((?x8879 (* 19.0 |v0:17|)))
 (let ((?x4793 (+ (+ (+ (+ (* 12.0 ?x5522) (* ?x4677 |v4:13|)) (* ?x8531 ?x7153)) |v17:0|) (* 4.0 |v15:2|))))
 (let (($x802 (or (<= (+ (+ ?x4793 ?x8879) ?x8733) 18.0) (<= (+ (+ ?x4810 ?x4255) (* 4.0 ?x5522)) ?x5229))))
 (let (($x6986 (and (and $x802 (or (<= (+ (+ ?x8874 ?x2322) ?x8806) 4.0) $x9303)) (or $x108 $x1505))))
 (let ((?x1498 (* ?x6619 |v5:12|)))
 (let ((?x8406 (+ (+ (+ (+ (* ?x1720 |v2:15|) (* ?x772 ?x5522)) (* 14.0 ?x261)) ?x4296) ?x1498)))
 (let ((?x7851 (* ?x4677 |v1:16|)))
 (let ((?x1235 (+ (+ (+ (+ (* ?x4677 |v14:3|) (* ?x8687 |v17:0|)) (* ?x5229 |v4:13|)) |v12:5|) ?x7851)))
 (let (($x9386 (and (<= (+ (+ ?x1235 ?x4208) (* 13.0 ?x4651)) 7.0) (<= (+ (+ ?x8406 (* ?x7266 |v14:3|)) |v15:2|) 17.0))))
 (let ((?x8277 (* 7.0 |v2:15|)))
 (let ((?x4612 (* ?x5377 |v4:13|)))
 (let ((?x8681 (+ (+ (+ (+ (* ?x6619 |v3:14|) (* ?x9010 |v13:4|)) (* ?x8798 ?x9047)) ?x8076) (* ?x772 |v15:2|))))
 (let ((?x7378 (* 10.0 |v1:16|)))
 (let ((?x963 (+ (+ (+ (+ (* 19.0 ?x6324) ?x5095) (* 4.0 |v0:17|)) (* 17.0 ?x5522)) (* 8.0 |v15:2|))))
 (let (($x1348 (or (<= (+ (+ ?x963 ?x7378) (* 12.0 ?x6324)) 19.0) (<= (+ (+ ?x8681 ?x4612) ?x8277) 14.0))))
 (let ((?x4058 (* 4.0 |v5:12|)))
 (let ((?x2648 (* 14.0 |v2:15|)))
 (let ((?x4429 (+ (+ (+ (+ ?x853 (* 14.0 |v5:12|)) (* 20.0 |v14:3|)) (* ?x7266 |v4:13|)) ?x2648)))
 (let ((?x1518 (* ?x8798 |v14:3|)))
 (let ((?x8199 (* ?x772 ?x7153)))
 (let ((?x3178 (* ?x8531 |v2:15|)))
 (let ((?x8853 (+ (+ (+ (+ (* (- 11.0) |v3:14|) (* 10.0 |v15:2|)) (* ?x7347 |v13:4|)) ?x3178) ?x8199)))
 (let (($x3862 (and (<= (+ (+ ?x8853 (* 19.0 |v17:0|)) ?x1518) 3.0) (<= (+ (+ ?x4429 ?x4058) (* 16.0 |v15:2|)) 0.0))))
 (let ((?x7467 (* 6.0 |v2:15|)))
 (let ((?x2020 (* 16.0 |v17:0|)))
 (let ((?x4215 (+ (+ (+ (+ (+ (* 20.0 |v15:2|) |v15:2|) ?x4885) (* ?x1075 |v1:16|)) ?x2020) ?x7467)))
 (let ((?x2061 (* 14.0 |v14:3|)))
 (let ((?x2082 (* 6.0 |v4:13|)))
 (let ((?x329 (* 15.0 |v5:12|)))
 (let ((?x386 (* ?x772 ?x5522)))
 (let ((?x3567 (+ (+ (+ (+ (* (- 11.0) |v2:15|) (* 0.0 |v14:3|)) (* ?x772 |v13:4|)) ?x386) ?x329)))
 (let (($x8633 (or (or (<= (+ (+ ?x3567 ?x2082) ?x2061) 18.0) (<= (+ ?x4215 ?x7870) 16.0)) $x3862)))
 (let ((?x8337 (* 4.0 |v1:16|)))
 (let ((?x1701 (* 2.0 |v17:0|)))
 (let ((?x8160 (+ (+ (+ (+ (* 8.0 |v2:15|) ?x1518) (* ?x5377 |v13:4|)) (* 13.0 |v0:17|)) ?x1701)))
 (let ((?x7982 (* 11.0 |v0:17|)))
 (let ((?x7540 (+ (+ (+ (+ (* 4.0 |v16:1|) (* 16.0 ?x5522)) (* ?x2544 |v3:14|)) ?x7982) ?x7034)))
 (let (($x4943 (and (<= (+ (+ ?x7540 ?x9229) (* 0.0 ?x261)) ?x8798) (<= (+ (+ ?x8160 (* 15.0 ?x6324)) ?x8337) ?x7358))))
 (let ((?x4498 (* 13.0 |v4:13|)))
 (let ((?x3486 (* ?x1075 |v3:14|)))
 (let ((?x8024 (* 4.0 ?x6324)))
 (let ((?x619 (+ (+ (+ (+ (* 5.0 |v1:16|) ?x5246) (* 10.0 |v14:3|)) (* 5.0 |v14:3|)) ?x8024)))
 (let ((?x7124 (* 5.0 |v13:4|)))
 (let ((?x5125 (+ (+ (+ (+ (* 5.0 |v17:0|) (* 11.0 |v5:12|)) (* 0.0 |v2:15|)) ?x5095) (* ?x7347 ?x4651))))
 (let (($x8179 (and (<= (+ (+ ?x5125 (* ?x1075 ?x4651)) ?x7124) 13.0) (<= (+ (+ ?x619 ?x3486) ?x4498) 11.0))))
 (let ((?x8267 (* ?x8798 |v5:12|)))
 (let ((?x4828 (* 15.0 ?x5522)))
 (let ((?x9460 (* 16.0 |v14:3|)))
 (let ((?x8621 (+ (+ (+ (+ (* ?x8531 |v4:13|) (* 8.0 |v4:13|)) (* 0.0 ?x4651)) ?x9460) ?x4828)))
 (let ((?x8945 (* 9.0 |v0:17|)))
 (let ((?x7715 (+ (+ (+ (+ ?x7968 (* ?x6619 ?x9047)) (* 11.0 |v4:13|)) (* 11.0 ?x6324)) (* ?x1075 ?x261))))
 (let (($x3040 (or (<= (+ (+ ?x7715 ?x8945) ?x3122) ?x8531) (<= (+ (+ ?x8621 ?x8267) ?x7124) ?x7347))))
 (let ((?x4447 (* 14.0 |v0:17|)))
 (let ((?x2614 (* 6.0 ?x5522)))
 (let ((?x1077 (+ (+ (+ (+ (* ?x7358 ?x261) (* 18.0 |v17:0|)) (* ?x7358 |v4:13|)) ?x2614) ?x7119)))
 (let ((?x505 (* ?x772 |v14:3|)))
 (let ((?x4140 (* 18.0 ?x7153)))
 (let ((?x5283 (+ (+ (+ (+ (+ (* ?x2544 |v3:14|) ?x2020) ?x6541) (* 19.0 |v12:5|)) ?x4140) (* ?x2464 ?x9047))))
 (let (($x7805 (or (<= (+ ?x5283 ?x505) 10.0) (<= (+ (+ ?x1077 ?x4447) (* ?x1075 ?x7153)) 9.0))))
 (let ((?x3755 (* 8.0 |v5:12|)))
 (let ((?x4776 (+ (+ (+ (+ (+ (+ ?x2614 ?x6040) ?x8733) (* 12.0 |v14:3|)) |v13:4|) ?x4651) ?x3755)))
 (let ((?x2864 (* 6.0 |v3:14|)))
 (let ((?x2803 (+ (+ (+ (+ (* ?x6619 |v14:3|) (* ?x1720 ?x5522)) ?x5406) (* ?x5229 |v5:12|)) ?x2864)))
 (let ((?x7111 (* 5.0 |v17:0|)))
 (let ((?x1241 (+ (+ (+ (* 0.0 |v1:16|) (* (- 11.0) |v17:0|)) (* (- 11.0) ?x9047)) (* ?x2464 ?x261))))
 (let (($x3701 (<= (+ (+ (+ ?x1241 ?x7111) (* (- 11.0) |v12:5|)) (* ?x4677 ?x6324)) 13.0)))
 (let ((?x2717 (* 9.0 ?x261)))
 (let ((?x1323 (* 19.0 ?x7153)))
 (let ((?x5225 (+ (+ (+ (+ (+ (* 20.0 |v14:3|) (* 18.0 |v12:5|)) |v13:4|) ?x3755) ?x1323) ?x2717)))
 (let (($x8393 (or (or (<= (+ ?x5225 (* 17.0 |v13:4|)) ?x8687) $x3701) (and (<= (+ (+ ?x2803 (* ?x7347 |v16:1|)) ?x8078) ?x1697) (<= ?x4776 ?x7266)))))
 (let ((?x6031 (* 0.0 |v0:17|)))
 (let ((?x7716 (* ?x1786 ?x5522)))
 (let ((?x2307 (* 5.0 |v1:16|)))
 (let ((?x2598 (+ (+ (+ (+ (* 17.0 |v15:2|) (* ?x1786 ?x261)) (* ?x1720 ?x4651)) ?x2307) ?x7716)))
 (let (($x3150 (and (or (<= (+ (+ ?x2598 ?x526) ?x6031) 16.0) $x8393) (and (and $x7805 $x3040) (and $x8179 $x4943)))))
 (let ((?x1010 (* 19.0 |v12:5|)))
 (let ((?x7203 (* 10.0 |v14:3|)))
 (let ((?x7275 (+ (+ (+ (* ?x7347 |v14:3|) (* ?x1720 |v0:17|)) (* 15.0 |v15:2|)) (* ?x9010 ?x5522))))
 (let (($x8852 (and (<= (+ (+ (+ ?x7275 ?x4097) ?x7203) ?x1010) ?x2464) (and (or $x3150 (or (and $x8633 (and $x1348 $x9386)) $x6986)) $x1164))))
 (let (($x4184 (not (= |v6:11_st| (RMk1 val!9635)))))
 (let (($x3947 (not (= |v7:10_st| (RMk1 val!9634)))))
 (let (($x3746 (not (= |v8:9_st| (RMk1 val!9633)))))
 (let (($x3505 (not (= |v9:8_st| (RMk1 val!9632)))))
 (let (($x1202 (not (= |v10:7_st| (RMk1 val!9631)))))
 (let (($x2351 (not (= |v11:6_st| (RMk1 val!9630)))))
 (and $x2351 $x1202 $x3505 $x3746 $x3947 $x4184 $x8852)))))))))))))))))))))))))))))))))))))))))))))))))))))))))))))))))))))))))))))))))))))))))))))))))))))))))))))))))))))))))))))))))))))))))))))))))))))))))))))))))))))))))))))))))))))))))))))))))))))))))))))))))))))))))))))))))))))))))))))))))))))))))
 )
 )
 )
 )
 )
 )
 )
 )
 )
 )
 )
 )
 )
 )
 )
 )
 )
 )
(check-sat)
